p cnf 10 50
-1 8 -9 0
-2 -3 -4 0
-5 7 -1 0
-3 1 -7 0
-4 -2 5 0
4 5 10 0
4 5 1 0
-6 -7 8 0
7 10 2 0
4 -5 9 0
-5 -3 -4 0
6 1 7 0
3 2 -10 0
-10 -5 -1 0
4 -2 7 0
1 8 4 0
-8 2 5 0
-2 4 9 0
10 6 -2 0
-3 5 -9 0
2 -8 4 0
9 -4 -10 0
1 -5 2 0
5 2 -9 0
-1 -4 -9 0
-10 2 -5 0
6 -1 -4 0
9 10 3 0
-6 -5 -9 0
-10 -9 3 0
3 2 6 0
-10 5 2 0
-5 -3 8 0
-4 1 5 0
-1 5 9 0
-2 -8 -4 0
-9 -5 1 0
6 -1 5 0
-7 8 9 0
1 10 -7 0
3 -5 8 0
-8 9 10 0
2 7 -1 0
-5 -6 4 0
2 6 8 0
-8 4 -6 0
-9 1 5 0
1 -5 9 0
-6 9 7 0
7 4 -2 0
